10J3M/DAT/10J3MUTX-6.dat
10 3
44.8117 6.6942
13.4694 3.6701
0.103 0.3209
11.8469 3.4419
15.5888 3.9483
32.4281 5.6946
22.255 4.7175
22.6838 4.7628
32.2656 5.6803
47.0203 6.8571
11.447