10J3M/SOL/10J3MUTX-6.sol
solution status: optimal solution found
objective value:                     67.0518336866278
x#1#2                                0.44105171698995 	(obj:0)
x#1#3                                0.55894828301005 	(obj:0)
x#6#3                                               1 	(obj:0)
x#7#2                               0.986115527291998 	(obj:0)
x#8#1                               0.476867764434792 	(obj:0)
x#8#2                                0.10096703780882 	(obj:0)
x#8#3                               0.422165197756387 	(obj:0)
x#9#1                                               1 	(obj:0)
x#10#1                              0.509759841850049 	(obj:0)
x#10#2                              0.490240158149951 	(obj:0)
z                                    67.0518336866278 	(obj:1)
